Version identifier: 20.1.0.0 | 2020-11-10 | 9bedb6d68
Tried aggregator 2 times.
MIP Presolve eliminated 847 rows and 453 columns.
MIP Presolve modified 1766 coefficients.
Aggregator did 101 substitutions.
Reduced MIP has 758 rows, 653 columns, and 2402 nonzeros.
Reduced MIP has 193 binaries, 460 generals, 0 SOSs, and 0 indicators.
Presolve time = 0.01 sec. (3.80 ticks)
Found incumbent of value 51.000000 after 0.02 sec. (6.64 ticks)
Probing fixed 20 vars, tightened 157 bounds.
Probing time = 0.00 sec. (0.67 ticks)
Tried aggregator 2 times.
Detecting symmetries...
MIP Presolve eliminated 293 rows and 20 columns.
MIP Presolve modified 62 coefficients.
Aggregator did 7 substitutions.
Reduced MIP has 458 rows, 626 columns, and 1496 nonzeros.
Reduced MIP has 218 binaries, 408 generals, 0 SOSs, and 0 indicators.
Presolve time = 0.00 sec. (2.04 ticks)
Probing time = 0.00 sec. (0.12 ticks)
Clique table members: 1.
MIP emphasis: balance optimality and feasibility.
MIP search method: dynamic search.
Parallel mode: deterministic, using up to 24 threads.
Root relaxation solution time = 0.00 sec. (1.10 ticks)

        Nodes                                         Cuts/
   Node  Left     Objective  IInf  Best Integer    Best Bound    ItCnt     Gap

*     0+    0                           51.0000        0.0000           100.00%
*     0+    0                           18.0000        0.0000           100.00%
      0     0        0.0000    24       18.0000        0.0000      137  100.00%
      0     0        2.2500   112       18.0000     Cuts: 101      251   87.50%
      0     0        2.3927   202       18.0000      Cuts: 75      413   86.71%
*     0+    0                           14.0000        2.3927            82.91%
      0     0        3.0769   211       14.0000      Cuts: 63      480   78.02%
      0     0        3.0800   221       14.0000      Cuts: 61      550   78.00%
      0     0        3.0800   238       14.0000      Cuts: 44      592   78.00%
      0     0        3.0800   209       14.0000      Cuts: 36      636   78.00%
      0     0        3.3333   148       14.0000      Cuts: 67      676   76.19%
      0     0        4.0000   191       14.0000      Cuts: 73      733   71.43%
      0     0        4.0000   180       14.0000      Cuts: 37      760   71.43%
      0     0        4.0000   184       14.0000      Cuts: 23      824   71.43%
*     0+    0                           12.0000        4.0000            66.67%
      0     0        cutoff             12.0000       12.0000      824    0.00%
Elapsed time = 0.25 sec. (77.84 ticks, tree = 0.01 MB, solutions = 4)

Implied bound cuts applied:  7
Mixed integer rounding cuts applied:  5
Zero-half cuts applied:  31
Lift and project cuts applied:  1
Gomory fractional cuts applied:  4

Root node processing (before b&c):
  Real time             =    0.25 sec. (77.90 ticks)
Parallel b&c, 24 threads:
  Real time             =    0.00 sec. (0.00 ticks)
  Sync time (average)   =    0.00 sec.
  Wait time (average)   =    0.00 sec.
                          ------------
Total (root+branch&cut) =    0.25 sec. (77.90 ticks)

Solution status = Optimal
Solution LB = 12
Solution UB = 12
Runtime = 0.258678 seconds
	Command being timed: "/home/min/git_repos/CS598MEBProject/CNT-ILP/build/cnt -s 2 ./output/k6_n20/simC_c1_k6_n20_u3_s1_del02.input-left.cnp"
	User time (seconds): 3.72
	System time (seconds): 0.08
	Percent of CPU this job got: 1305%
	Elapsed (wall clock) time (h:mm:ss or m:ss): 0:00.29
	Average shared text size (kbytes): 0
	Average unshared data size (kbytes): 0
	Average stack size (kbytes): 0
	Average total size (kbytes): 0
	Maximum resident set size (kbytes): 58756
	Average resident set size (kbytes): 0
	Major (requiring I/O) page faults: 0
	Minor (reclaiming a frame) page faults: 11784
	Voluntary context switches: 3074
	Involuntary context switches: 466
	Swaps: 0
	File system inputs: 0
	File system outputs: 16
	Socket messages sent: 0
	Socket messages received: 0
	Signals delivered: 0
	Page size (bytes): 4096
	Exit status: 0
